 Title
 1.0
          3.90499997          0.00000000          0.00000000
          0.00000000          3.90499997          0.00000000
          0.00000000          0.00000000         61.28800201
   Sr   Ca    O   Ti   Zr
    9    4   37    8    4
 Direct
   0.00000000       0.00000000       0.00000000    
   0.00000000       0.00000000       6.37155697E-02
   0.00000000       0.00000000      0.127431139    
   0.00000000       0.00000000      0.191146716    
   0.00000000       0.00000000      0.254862279    
   0.00000000       0.00000000      0.318577856    
   0.00000000       0.00000000      0.382293433    
   0.00000000       0.00000000      0.446008980    
   0.00000000       0.00000000      0.509724557    
   0.00000000       0.00000000      0.575185955    
   0.00000000       0.00000000      0.640647411    
   0.00000000       0.00000000      0.706108868    
   0.00000000       0.00000000      0.771570325    
  0.500000000      0.500000000       0.00000000    
   0.00000000      0.500000000       3.18577848E-02
  0.500000000       0.00000000       3.18577848E-02
  0.500000000      0.500000000       6.37155697E-02
   0.00000000      0.500000000       9.55733508E-02
  0.500000000       0.00000000       9.55733508E-02
  0.500000000      0.500000000      0.127431139    
   0.00000000      0.500000000      0.159288928    
  0.500000000       0.00000000      0.159288928    
  0.500000000      0.500000000      0.191146716    
   0.00000000      0.500000000      0.223004505    
  0.500000000       0.00000000      0.223004505    
  0.500000000      0.500000000      0.254862279    
   0.00000000      0.500000000      0.286720067    
  0.500000000       0.00000000      0.286720067    
  0.500000000      0.500000000      0.318577856    
   0.00000000      0.500000000      0.350435644    
  0.500000000       0.00000000      0.350435644    
  0.500000000      0.500000000      0.382293433    
   0.00000000      0.500000000      0.414151222    
  0.500000000       0.00000000      0.414151222    
  0.500000000      0.500000000      0.446008980    
   0.00000000      0.500000000      0.477866769    
  0.500000000       0.00000000      0.477866769    
  0.500000000      0.500000000      0.509724557    
  0.500000000      0.500000000      0.575185955    
   0.00000000      0.500000000      0.542455256    
  0.500000000       0.00000000      0.542455256    
  0.500000000      0.500000000      0.640647411    
   0.00000000      0.500000000      0.607916713    
  0.500000000       0.00000000      0.607916713    
  0.500000000      0.500000000      0.706108809    
   0.00000000      0.500000000      0.673378110    
  0.500000000       0.00000000      0.673378110    
  0.500000000      0.500000000      0.771570206    
   0.00000000      0.500000000      0.738839507    
  0.500000000       0.00000000      0.738839507    
  0.500000000      0.500000000       3.18577848E-02
  0.500000000      0.500000000       9.55733508E-02
  0.500000000      0.500000000      0.159288928    
  0.500000000      0.500000000      0.223004505    
  0.500000000      0.500000000      0.286720067    
  0.500000000      0.500000000      0.350435644    
  0.500000000      0.500000000      0.414151222    
  0.500000000      0.500000000      0.477866769    
  0.500000000      0.500000000      0.542455256    
  0.500000000      0.500000000      0.607916713    
  0.500000000      0.500000000      0.673378110    
  0.500000000      0.500000000      0.738839507    
